Running for instance ./models/r205.txt
Optimize a model with 101 rows, 2000 columns and 24764 nonzeros
Variable types: 0 continuous, 2000 integer (0 binary)
Coefficient statistics:
  Matrix range     [1e+00, 1e+00]
  Objective range  [4e+01, 7e+02]
  Bounds range     [1e+00, 1e+00]
  RHS range        [1e+00, 2e+01]
Found heuristic solution: objective 7941.9533977
Presolve removed 0 rows and 2 columns
Presolve time: 0.03s
Presolved: 101 rows, 1998 columns, 24754 nonzeros
Variable types: 0 continuous, 1998 integer (1998 binary)

Root relaxation: objective 2.697489e+03, 717 iterations, 0.05 seconds

    Nodes    |    Current Node    |     Objective Bounds      |     Work
 Expl Unexpl |  Obj  Depth IntInf | Incumbent    BestBd   Gap | It/Node Time

     0     0 2697.48862    0   98 7941.95340 2697.48862  66.0%     -    0s
H    0     0                    4218.3483496 2697.48862  36.1%     -    0s
H    0     0                    4047.0015819 2698.67210  33.3%     -    0s
     0     0 2702.85080    0  103 4047.00158 2702.85080  33.2%     -    0s
     0     0 2704.76668    0  106 4047.00158 2704.76668  33.2%     -    0s
     0     0 2706.12518    0  101 4047.00158 2706.12518  33.1%     -    0s
     0     0 2707.55530    0  104 4047.00158 2707.55530  33.1%     -    0s
     0     0 2707.65982    0  108 4047.00158 2707.65982  33.1%     -    0s
     0     0 2708.30649    0  106 4047.00158 2708.30649  33.1%     -    0s
     0     0 2708.43740    0  108 4047.00158 2708.43740  33.1%     -    0s
     0     0 2709.10159    0  111 4047.00158 2709.10159  33.1%     -    0s
     0     0 2709.36302    0  112 4047.00158 2709.36302  33.1%     -    0s
     0     0 2709.37054    0  111 4047.00158 2709.37054  33.1%     -    0s
     0     0 2710.04966    0  111 4047.00158 2710.04966  33.0%     -    0s
     0     0 2710.23841    0  114 4047.00158 2710.23841  33.0%     -    0s
     0     0 2711.02935    0  111 4047.00158 2711.02935  33.0%     -    0s
     0     0 2711.13097    0  111 4047.00158 2711.13097  33.0%     -    0s
     0     0 2711.15902    0  111 4047.00158 2711.15902  33.0%     -    0s
     0     0 2711.43361    0  112 4047.00158 2711.43361  33.0%     -    0s
     0     0 2711.49531    0  114 4047.00158 2711.49531  33.0%     -    0s
     0     0 2711.50447    0  115 4047.00158 2711.50447  33.0%     -    0s
     0     0 2711.70548    0  115 4047.00158 2711.70548  33.0%     -    1s
     0     0 2711.75717    0  115 4047.00158 2711.75717  33.0%     -    1s
     0     0 2711.78142    0  118 4047.00158 2711.78142  33.0%     -    1s
     0     0 2712.07838    0  116 4047.00158 2712.07838  33.0%     -    1s
     0     0 2712.09184    0  116 4047.00158 2712.09184  33.0%     -    1s
H    0     0                    3544.3444530 2712.09184  23.5%     -    1s
     0     0 2712.23603    0  116 3544.34445 2712.23603  23.5%     -    1s
     0     0 2712.24873    0  118 3544.34445 2712.24873  23.5%     -    1s
     0     0 2712.63568    0  115 3544.34445 2712.63568  23.5%     -    1s
     0     0 2712.67951    0  116 3544.34445 2712.67951  23.5%     -    1s
     0     0 2712.80071    0  117 3544.34445 2712.80071  23.5%     -    1s
     0     0 2712.81951    0  116 3544.34445 2712.81951  23.5%     -    1s
     0     0 2713.03512    0  115 3544.34445 2713.03512  23.5%     -    1s
     0     0 2713.06056    0  119 3544.34445 2713.06056  23.5%     -    1s
     0     0 2713.06378    0  118 3544.34445 2713.06378  23.5%     -    1s
     0     0 2713.14720    0  121 3544.34445 2713.14720  23.5%     -    1s
     0     2 2713.14720    0  121 3544.34445 2713.14720  23.5%     -    2s
*    6     6               2    3118.1018340 2717.20642  12.9%   159    2s
   409   405 2813.07071   66   99 3118.10183 2719.83034  12.8%  28.8    5s
H 1057   917                    3113.3965311 2720.11606  12.6%  28.1    8s
  1076   932 2720.11606   12  117 3113.39653 2720.11606  12.6%  28.9   10s
  2399  1181 2821.99958   60  103 3113.39653 2821.99958  9.36%  39.2   15s
  5875  2981 3061.83077  144   84 3113.39653 2913.42897  6.42%  37.7   20s
  8544  4267 2961.58535  228   97 3113.39653 2954.74409  5.10%  39.9   25s
 10880  4489 3054.88424  382   97 3113.39653 2987.00437  4.06%  43.8   30s
 13547  4503     cutoff  125      3113.39653 3025.58820  2.82%  44.9   35s
 15418  3804     cutoff  148      3113.39653 3050.36306  2.02%  45.9   40s
 19266  1262     cutoff  116      3113.39653 3085.51684  0.90%  44.3   45s

Cutting planes:
  MIR: 21
  Flow cover: 46
  Zero half: 6
  Mod-K: 1

Explored 20910 nodes (890603 simplex iterations) in 46.12 seconds
Thread count was 8 (of 8 available processors)

Solution count 6: 3113.4 3118.1 3544.34 ... 7941.95

Optimal solution found (tolerance 1.00e-04)
Best objective 3.113396531089e+03, best bound 3.113396531089e+03, gap 0.0000%
45 63
70 13 93 48 58 77
64 69 51 99 90 84 43 96 37 97 25 68 35 24 100
21 38 30 71 73 86 41 57 1 54 32 60 91
72 67 78 18 87 53 85 22 56 26 55 20 10 74
14 98 83 5 42 61 75 23 7 76 94 9 79 49 34 50
33 29 44 47 82 19 16 81 46 8
65 95 52 31 36 11 62 40 6
27 39 28 59 15 92 12
Distance: 3113.39653109
Execution time:  0.80879185  minutes
